(set-logic QF_S)
(declare-fun T_SELECT_18 () Bool)
(declare-fun T_ce () Bool)
(declare-fun T_cf () Bool)
(declare-fun I0_306 () Int)
(declare-fun I0_310 () Int)
(declare-fun I1_306 () Int)
(declare-fun I1_310 () Int)
(declare-fun I2_306 () Int)
(declare-fun I2_310 () Int)
(declare-fun PCTEMP_LHS_80 () Int)
(declare-fun T_d3 () Int)
(declare-fun NEW_DGNode_1592 () String)
(declare-fun NEW_DGNode_1593 () String)
(declare-fun PCTEMP_LHS_84 () String)
(assert (= PCTEMP_LHS_84 NEW_DGNode_1593))
(assert (= NEW_DGNode_1593 NEW_DGNode_1592))
(assert (not (str.in.re NEW_DGNode_1593 (str.to.re "+"))))
(assert (not (str.in.re NEW_DGNode_1592 (str.to.re "%"))))
(assert (= T_SELECT_18 (not (= PCTEMP_LHS_80 (- 1)))))
(assert T_cf)
(assert (= T_cf (not T_ce)))
(assert (= T_ce (= PCTEMP_LHS_80 (- 1))))
(assert (= I0_306 (- PCTEMP_LHS_80 0)))
(assert (>= PCTEMP_LHS_80 0))
(assert (= I2_306 I1_306))
(assert (<= PCTEMP_LHS_80 I1_306))
(assert (= T_d3 (+ PCTEMP_LHS_80 1)))
(assert (>= T_d3 0))
(assert (>= I2_310 T_d3))
(assert (= I2_310 I1_310))
(assert (<= I2_310 I1_310))
(assert (= I0_310 (- I2_310 T_d3)))
(assert (= I0_310 (str.len PCTEMP_LHS_84))) ; len 0
(check-sat)
